mp_grid = 8, 8, 8
num_bands = 16
num_wann = 8
postproc_setup = .true.

begin atoms_cart
ang
Si         5.8004619750       3.3488982827       2.3680286852 
Si         3.8669746500       2.2325988551       1.5786857901 
end atoms_cart

begin kpoint_path
G   0.0000000000   0.0000000000   0.0000000000  X   0.5000000000   0.0000000000   0.5000000000
X   0.5000000000   0.0000000000   0.5000000000  L   0.5000000000   0.5000000000   0.5000000000
L   0.5000000000   0.5000000000   0.5000000000  G   0.0000000000   0.0000000000   0.0000000000
end kpoint_path

begin kpoints
      0.0000000000       0.0000000000       0.0000000000
      0.0000000000       0.0000000000       0.1250000000
      0.0000000000       0.0000000000       0.2500000000
      0.0000000000       0.0000000000       0.3750000000
      0.0000000000       0.0000000000       0.5000000000
      0.0000000000       0.0000000000       0.6250000000
      0.0000000000       0.0000000000       0.7500000000
      0.0000000000       0.0000000000       0.8750000000
      0.0000000000       0.1250000000       0.0000000000
      0.0000000000       0.1250000000       0.1250000000
      0.0000000000       0.1250000000       0.2500000000
      0.0000000000       0.1250000000       0.3750000000
      0.0000000000       0.1250000000       0.5000000000
      0.0000000000       0.1250000000       0.6250000000
      0.0000000000       0.1250000000       0.7500000000
      0.0000000000       0.1250000000       0.8750000000
      0.0000000000       0.2500000000       0.0000000000
      0.0000000000       0.2500000000       0.1250000000
      0.0000000000       0.2500000000       0.2500000000
      0.0000000000       0.2500000000       0.3750000000
      0.0000000000       0.2500000000       0.5000000000
      0.0000000000       0.2500000000       0.6250000000
      0.0000000000       0.2500000000       0.7500000000
      0.0000000000       0.2500000000       0.8750000000
      0.0000000000       0.3750000000       0.0000000000
      0.0000000000       0.3750000000       0.1250000000
      0.0000000000       0.3750000000       0.2500000000
      0.0000000000       0.3750000000       0.3750000000
      0.0000000000       0.3750000000       0.5000000000
      0.0000000000       0.3750000000       0.6250000000
      0.0000000000       0.3750000000       0.7500000000
      0.0000000000       0.3750000000       0.8750000000
      0.0000000000       0.5000000000       0.0000000000
      0.0000000000       0.5000000000       0.1250000000
      0.0000000000       0.5000000000       0.2500000000
      0.0000000000       0.5000000000       0.3750000000
      0.0000000000       0.5000000000       0.5000000000
      0.0000000000       0.5000000000       0.6250000000
      0.0000000000       0.5000000000       0.7500000000
      0.0000000000       0.5000000000       0.8750000000
      0.0000000000       0.6250000000       0.0000000000
      0.0000000000       0.6250000000       0.1250000000
      0.0000000000       0.6250000000       0.2500000000
      0.0000000000       0.6250000000       0.3750000000
      0.0000000000       0.6250000000       0.5000000000
      0.0000000000       0.6250000000       0.6250000000
      0.0000000000       0.6250000000       0.7500000000
      0.0000000000       0.6250000000       0.8750000000
      0.0000000000       0.7500000000       0.0000000000
      0.0000000000       0.7500000000       0.1250000000
      0.0000000000       0.7500000000       0.2500000000
      0.0000000000       0.7500000000       0.3750000000
      0.0000000000       0.7500000000       0.5000000000
      0.0000000000       0.7500000000       0.6250000000
      0.0000000000       0.7500000000       0.7500000000
      0.0000000000       0.7500000000       0.8750000000
      0.0000000000       0.8750000000       0.0000000000
      0.0000000000       0.8750000000       0.1250000000
      0.0000000000       0.8750000000       0.2500000000
      0.0000000000       0.8750000000       0.3750000000
      0.0000000000       0.8750000000       0.5000000000
      0.0000000000       0.8750000000       0.6250000000
      0.0000000000       0.8750000000       0.7500000000
      0.0000000000       0.8750000000       0.8750000000
      0.1250000000       0.0000000000       0.0000000000
      0.1250000000       0.0000000000       0.1250000000
      0.1250000000       0.0000000000       0.2500000000
      0.1250000000       0.0000000000       0.3750000000
      0.1250000000       0.0000000000       0.5000000000
      0.1250000000       0.0000000000       0.6250000000
      0.1250000000       0.0000000000       0.7500000000
      0.1250000000       0.0000000000       0.8750000000
      0.1250000000       0.1250000000       0.0000000000
      0.1250000000       0.1250000000       0.1250000000
      0.1250000000       0.1250000000       0.2500000000
      0.1250000000       0.1250000000       0.3750000000
      0.1250000000       0.1250000000       0.5000000000
      0.1250000000       0.1250000000       0.6250000000
      0.1250000000       0.1250000000       0.7500000000
      0.1250000000       0.1250000000       0.8750000000
      0.1250000000       0.2500000000       0.0000000000
      0.1250000000       0.2500000000       0.1250000000
      0.1250000000       0.2500000000       0.2500000000
      0.1250000000       0.2500000000       0.3750000000
      0.1250000000       0.2500000000       0.5000000000
      0.1250000000       0.2500000000       0.6250000000
      0.1250000000       0.2500000000       0.7500000000
      0.1250000000       0.2500000000       0.8750000000
      0.1250000000       0.3750000000       0.0000000000
      0.1250000000       0.3750000000       0.1250000000
      0.1250000000       0.3750000000       0.2500000000
      0.1250000000       0.3750000000       0.3750000000
      0.1250000000       0.3750000000       0.5000000000
      0.1250000000       0.3750000000       0.6250000000
      0.1250000000       0.3750000000       0.7500000000
      0.1250000000       0.3750000000       0.8750000000
      0.1250000000       0.5000000000       0.0000000000
      0.1250000000       0.5000000000       0.1250000000
      0.1250000000       0.5000000000       0.2500000000
      0.1250000000       0.5000000000       0.3750000000
      0.1250000000       0.5000000000       0.5000000000
      0.1250000000       0.5000000000       0.6250000000
      0.1250000000       0.5000000000       0.7500000000
      0.1250000000       0.5000000000       0.8750000000
      0.1250000000       0.6250000000       0.0000000000
      0.1250000000       0.6250000000       0.1250000000
      0.1250000000       0.6250000000       0.2500000000
      0.1250000000       0.6250000000       0.3750000000
      0.1250000000       0.6250000000       0.5000000000
      0.1250000000       0.6250000000       0.6250000000
      0.1250000000       0.6250000000       0.7500000000
      0.1250000000       0.6250000000       0.8750000000
      0.1250000000       0.7500000000       0.0000000000
      0.1250000000       0.7500000000       0.1250000000
      0.1250000000       0.7500000000       0.2500000000
      0.1250000000       0.7500000000       0.3750000000
      0.1250000000       0.7500000000       0.5000000000
      0.1250000000       0.7500000000       0.6250000000
      0.1250000000       0.7500000000       0.7500000000
      0.1250000000       0.7500000000       0.8750000000
      0.1250000000       0.8750000000       0.0000000000
      0.1250000000       0.8750000000       0.1250000000
      0.1250000000       0.8750000000       0.2500000000
      0.1250000000       0.8750000000       0.3750000000
      0.1250000000       0.8750000000       0.5000000000
      0.1250000000       0.8750000000       0.6250000000
      0.1250000000       0.8750000000       0.7500000000
      0.1250000000       0.8750000000       0.8750000000
      0.2500000000       0.0000000000       0.0000000000
      0.2500000000       0.0000000000       0.1250000000
      0.2500000000       0.0000000000       0.2500000000
      0.2500000000       0.0000000000       0.3750000000
      0.2500000000       0.0000000000       0.5000000000
      0.2500000000       0.0000000000       0.6250000000
      0.2500000000       0.0000000000       0.7500000000
      0.2500000000       0.0000000000       0.8750000000
      0.2500000000       0.1250000000       0.0000000000
      0.2500000000       0.1250000000       0.1250000000
      0.2500000000       0.1250000000       0.2500000000
      0.2500000000       0.1250000000       0.3750000000
      0.2500000000       0.1250000000       0.5000000000
      0.2500000000       0.1250000000       0.6250000000
      0.2500000000       0.1250000000       0.7500000000
      0.2500000000       0.1250000000       0.8750000000
      0.2500000000       0.2500000000       0.0000000000
      0.2500000000       0.2500000000       0.1250000000
      0.2500000000       0.2500000000       0.2500000000
      0.2500000000       0.2500000000       0.3750000000
      0.2500000000       0.2500000000       0.5000000000
      0.2500000000       0.2500000000       0.6250000000
      0.2500000000       0.2500000000       0.7500000000
      0.2500000000       0.2500000000       0.8750000000
      0.2500000000       0.3750000000       0.0000000000
      0.2500000000       0.3750000000       0.1250000000
      0.2500000000       0.3750000000       0.2500000000
      0.2500000000       0.3750000000       0.3750000000
      0.2500000000       0.3750000000       0.5000000000
      0.2500000000       0.3750000000       0.6250000000
      0.2500000000       0.3750000000       0.7500000000
      0.2500000000       0.3750000000       0.8750000000
      0.2500000000       0.5000000000       0.0000000000
      0.2500000000       0.5000000000       0.1250000000
      0.2500000000       0.5000000000       0.2500000000
      0.2500000000       0.5000000000       0.3750000000
      0.2500000000       0.5000000000       0.5000000000
      0.2500000000       0.5000000000       0.6250000000
      0.2500000000       0.5000000000       0.7500000000
      0.2500000000       0.5000000000       0.8750000000
      0.2500000000       0.6250000000       0.0000000000
      0.2500000000       0.6250000000       0.1250000000
      0.2500000000       0.6250000000       0.2500000000
      0.2500000000       0.6250000000       0.3750000000
      0.2500000000       0.6250000000       0.5000000000
      0.2500000000       0.6250000000       0.6250000000
      0.2500000000       0.6250000000       0.7500000000
      0.2500000000       0.6250000000       0.8750000000
      0.2500000000       0.7500000000       0.0000000000
      0.2500000000       0.7500000000       0.1250000000
      0.2500000000       0.7500000000       0.2500000000
      0.2500000000       0.7500000000       0.3750000000
      0.2500000000       0.7500000000       0.5000000000
      0.2500000000       0.7500000000       0.6250000000
      0.2500000000       0.7500000000       0.7500000000
      0.2500000000       0.7500000000       0.8750000000
      0.2500000000       0.8750000000       0.0000000000
      0.2500000000       0.8750000000       0.1250000000
      0.2500000000       0.8750000000       0.2500000000
      0.2500000000       0.8750000000       0.3750000000
      0.2500000000       0.8750000000       0.5000000000
      0.2500000000       0.8750000000       0.6250000000
      0.2500000000       0.8750000000       0.7500000000
      0.2500000000       0.8750000000       0.8750000000
      0.3750000000       0.0000000000       0.0000000000
      0.3750000000       0.0000000000       0.1250000000
      0.3750000000       0.0000000000       0.2500000000
      0.3750000000       0.0000000000       0.3750000000
      0.3750000000       0.0000000000       0.5000000000
      0.3750000000       0.0000000000       0.6250000000
      0.3750000000       0.0000000000       0.7500000000
      0.3750000000       0.0000000000       0.8750000000
      0.3750000000       0.1250000000       0.0000000000
      0.3750000000       0.1250000000       0.1250000000
      0.3750000000       0.1250000000       0.2500000000
      0.3750000000       0.1250000000       0.3750000000
      0.3750000000       0.1250000000       0.5000000000
      0.3750000000       0.1250000000       0.6250000000
      0.3750000000       0.1250000000       0.7500000000
      0.3750000000       0.1250000000       0.8750000000
      0.3750000000       0.2500000000       0.0000000000
      0.3750000000       0.2500000000       0.1250000000
      0.3750000000       0.2500000000       0.2500000000
      0.3750000000       0.2500000000       0.3750000000
      0.3750000000       0.2500000000       0.5000000000
      0.3750000000       0.2500000000       0.6250000000
      0.3750000000       0.2500000000       0.7500000000
      0.3750000000       0.2500000000       0.8750000000
      0.3750000000       0.3750000000       0.0000000000
      0.3750000000       0.3750000000       0.1250000000
      0.3750000000       0.3750000000       0.2500000000
      0.3750000000       0.3750000000       0.3750000000
      0.3750000000       0.3750000000       0.5000000000
      0.3750000000       0.3750000000       0.6250000000
      0.3750000000       0.3750000000       0.7500000000
      0.3750000000       0.3750000000       0.8750000000
      0.3750000000       0.5000000000       0.0000000000
      0.3750000000       0.5000000000       0.1250000000
      0.3750000000       0.5000000000       0.2500000000
      0.3750000000       0.5000000000       0.3750000000
      0.3750000000       0.5000000000       0.5000000000
      0.3750000000       0.5000000000       0.6250000000
      0.3750000000       0.5000000000       0.7500000000
      0.3750000000       0.5000000000       0.8750000000
      0.3750000000       0.6250000000       0.0000000000
      0.3750000000       0.6250000000       0.1250000000
      0.3750000000       0.6250000000       0.2500000000
      0.3750000000       0.6250000000       0.3750000000
      0.3750000000       0.6250000000       0.5000000000
      0.3750000000       0.6250000000       0.6250000000
      0.3750000000       0.6250000000       0.7500000000
      0.3750000000       0.6250000000       0.8750000000
      0.3750000000       0.7500000000       0.0000000000
      0.3750000000       0.7500000000       0.1250000000
      0.3750000000       0.7500000000       0.2500000000
      0.3750000000       0.7500000000       0.3750000000
      0.3750000000       0.7500000000       0.5000000000
      0.3750000000       0.7500000000       0.6250000000
      0.3750000000       0.7500000000       0.7500000000
      0.3750000000       0.7500000000       0.8750000000
      0.3750000000       0.8750000000       0.0000000000
      0.3750000000       0.8750000000       0.1250000000
      0.3750000000       0.8750000000       0.2500000000
      0.3750000000       0.8750000000       0.3750000000
      0.3750000000       0.8750000000       0.5000000000
      0.3750000000       0.8750000000       0.6250000000
      0.3750000000       0.8750000000       0.7500000000
      0.3750000000       0.8750000000       0.8750000000
      0.5000000000       0.0000000000       0.0000000000
      0.5000000000       0.0000000000       0.1250000000
      0.5000000000       0.0000000000       0.2500000000
      0.5000000000       0.0000000000       0.3750000000
      0.5000000000       0.0000000000       0.5000000000
      0.5000000000       0.0000000000       0.6250000000
      0.5000000000       0.0000000000       0.7500000000
      0.5000000000       0.0000000000       0.8750000000
      0.5000000000       0.1250000000       0.0000000000
      0.5000000000       0.1250000000       0.1250000000
      0.5000000000       0.1250000000       0.2500000000
      0.5000000000       0.1250000000       0.3750000000
      0.5000000000       0.1250000000       0.5000000000
      0.5000000000       0.1250000000       0.6250000000
      0.5000000000       0.1250000000       0.7500000000
      0.5000000000       0.1250000000       0.8750000000
      0.5000000000       0.2500000000       0.0000000000
      0.5000000000       0.2500000000       0.1250000000
      0.5000000000       0.2500000000       0.2500000000
      0.5000000000       0.2500000000       0.3750000000
      0.5000000000       0.2500000000       0.5000000000
      0.5000000000       0.2500000000       0.6250000000
      0.5000000000       0.2500000000       0.7500000000
      0.5000000000       0.2500000000       0.8750000000
      0.5000000000       0.3750000000       0.0000000000
      0.5000000000       0.3750000000       0.1250000000
      0.5000000000       0.3750000000       0.2500000000
      0.5000000000       0.3750000000       0.3750000000
      0.5000000000       0.3750000000       0.5000000000
      0.5000000000       0.3750000000       0.6250000000
      0.5000000000       0.3750000000       0.7500000000
      0.5000000000       0.3750000000       0.8750000000
      0.5000000000       0.5000000000       0.0000000000
      0.5000000000       0.5000000000       0.1250000000
      0.5000000000       0.5000000000       0.2500000000
      0.5000000000       0.5000000000       0.3750000000
      0.5000000000       0.5000000000       0.5000000000
      0.5000000000       0.5000000000       0.6250000000
      0.5000000000       0.5000000000       0.7500000000
      0.5000000000       0.5000000000       0.8750000000
      0.5000000000       0.6250000000       0.0000000000
      0.5000000000       0.6250000000       0.1250000000
      0.5000000000       0.6250000000       0.2500000000
      0.5000000000       0.6250000000       0.3750000000
      0.5000000000       0.6250000000       0.5000000000
      0.5000000000       0.6250000000       0.6250000000
      0.5000000000       0.6250000000       0.7500000000
      0.5000000000       0.6250000000       0.8750000000
      0.5000000000       0.7500000000       0.0000000000
      0.5000000000       0.7500000000       0.1250000000
      0.5000000000       0.7500000000       0.2500000000
      0.5000000000       0.7500000000       0.3750000000
      0.5000000000       0.7500000000       0.5000000000
      0.5000000000       0.7500000000       0.6250000000
      0.5000000000       0.7500000000       0.7500000000
      0.5000000000       0.7500000000       0.8750000000
      0.5000000000       0.8750000000       0.0000000000
      0.5000000000       0.8750000000       0.1250000000
      0.5000000000       0.8750000000       0.2500000000
      0.5000000000       0.8750000000       0.3750000000
      0.5000000000       0.8750000000       0.5000000000
      0.5000000000       0.8750000000       0.6250000000
      0.5000000000       0.8750000000       0.7500000000
      0.5000000000       0.8750000000       0.8750000000
      0.6250000000       0.0000000000       0.0000000000
      0.6250000000       0.0000000000       0.1250000000
      0.6250000000       0.0000000000       0.2500000000
      0.6250000000       0.0000000000       0.3750000000
      0.6250000000       0.0000000000       0.5000000000
      0.6250000000       0.0000000000       0.6250000000
      0.6250000000       0.0000000000       0.7500000000
      0.6250000000       0.0000000000       0.8750000000
      0.6250000000       0.1250000000       0.0000000000
      0.6250000000       0.1250000000       0.1250000000
      0.6250000000       0.1250000000       0.2500000000
      0.6250000000       0.1250000000       0.3750000000
      0.6250000000       0.1250000000       0.5000000000
      0.6250000000       0.1250000000       0.6250000000
      0.6250000000       0.1250000000       0.7500000000
      0.6250000000       0.1250000000       0.8750000000
      0.6250000000       0.2500000000       0.0000000000
      0.6250000000       0.2500000000       0.1250000000
      0.6250000000       0.2500000000       0.2500000000
      0.6250000000       0.2500000000       0.3750000000
      0.6250000000       0.2500000000       0.5000000000
      0.6250000000       0.2500000000       0.6250000000
      0.6250000000       0.2500000000       0.7500000000
      0.6250000000       0.2500000000       0.8750000000
      0.6250000000       0.3750000000       0.0000000000
      0.6250000000       0.3750000000       0.1250000000
      0.6250000000       0.3750000000       0.2500000000
      0.6250000000       0.3750000000       0.3750000000
      0.6250000000       0.3750000000       0.5000000000
      0.6250000000       0.3750000000       0.6250000000
      0.6250000000       0.3750000000       0.7500000000
      0.6250000000       0.3750000000       0.8750000000
      0.6250000000       0.5000000000       0.0000000000
      0.6250000000       0.5000000000       0.1250000000
      0.6250000000       0.5000000000       0.2500000000
      0.6250000000       0.5000000000       0.3750000000
      0.6250000000       0.5000000000       0.5000000000
      0.6250000000       0.5000000000       0.6250000000
      0.6250000000       0.5000000000       0.7500000000
      0.6250000000       0.5000000000       0.8750000000
      0.6250000000       0.6250000000       0.0000000000
      0.6250000000       0.6250000000       0.1250000000
      0.6250000000       0.6250000000       0.2500000000
      0.6250000000       0.6250000000       0.3750000000
      0.6250000000       0.6250000000       0.5000000000
      0.6250000000       0.6250000000       0.6250000000
      0.6250000000       0.6250000000       0.7500000000
      0.6250000000       0.6250000000       0.8750000000
      0.6250000000       0.7500000000       0.0000000000
      0.6250000000       0.7500000000       0.1250000000
      0.6250000000       0.7500000000       0.2500000000
      0.6250000000       0.7500000000       0.3750000000
      0.6250000000       0.7500000000       0.5000000000
      0.6250000000       0.7500000000       0.6250000000
      0.6250000000       0.7500000000       0.7500000000
      0.6250000000       0.7500000000       0.8750000000
      0.6250000000       0.8750000000       0.0000000000
      0.6250000000       0.8750000000       0.1250000000
      0.6250000000       0.8750000000       0.2500000000
      0.6250000000       0.8750000000       0.3750000000
      0.6250000000       0.8750000000       0.5000000000
      0.6250000000       0.8750000000       0.6250000000
      0.6250000000       0.8750000000       0.7500000000
      0.6250000000       0.8750000000       0.8750000000
      0.7500000000       0.0000000000       0.0000000000
      0.7500000000       0.0000000000       0.1250000000
      0.7500000000       0.0000000000       0.2500000000
      0.7500000000       0.0000000000       0.3750000000
      0.7500000000       0.0000000000       0.5000000000
      0.7500000000       0.0000000000       0.6250000000
      0.7500000000       0.0000000000       0.7500000000
      0.7500000000       0.0000000000       0.8750000000
      0.7500000000       0.1250000000       0.0000000000
      0.7500000000       0.1250000000       0.1250000000
      0.7500000000       0.1250000000       0.2500000000
      0.7500000000       0.1250000000       0.3750000000
      0.7500000000       0.1250000000       0.5000000000
      0.7500000000       0.1250000000       0.6250000000
      0.7500000000       0.1250000000       0.7500000000
      0.7500000000       0.1250000000       0.8750000000
      0.7500000000       0.2500000000       0.0000000000
      0.7500000000       0.2500000000       0.1250000000
      0.7500000000       0.2500000000       0.2500000000
      0.7500000000       0.2500000000       0.3750000000
      0.7500000000       0.2500000000       0.5000000000
      0.7500000000       0.2500000000       0.6250000000
      0.7500000000       0.2500000000       0.7500000000
      0.7500000000       0.2500000000       0.8750000000
      0.7500000000       0.3750000000       0.0000000000
      0.7500000000       0.3750000000       0.1250000000
      0.7500000000       0.3750000000       0.2500000000
      0.7500000000       0.3750000000       0.3750000000
      0.7500000000       0.3750000000       0.5000000000
      0.7500000000       0.3750000000       0.6250000000
      0.7500000000       0.3750000000       0.7500000000
      0.7500000000       0.3750000000       0.8750000000
      0.7500000000       0.5000000000       0.0000000000
      0.7500000000       0.5000000000       0.1250000000
      0.7500000000       0.5000000000       0.2500000000
      0.7500000000       0.5000000000       0.3750000000
      0.7500000000       0.5000000000       0.5000000000
      0.7500000000       0.5000000000       0.6250000000
      0.7500000000       0.5000000000       0.7500000000
      0.7500000000       0.5000000000       0.8750000000
      0.7500000000       0.6250000000       0.0000000000
      0.7500000000       0.6250000000       0.1250000000
      0.7500000000       0.6250000000       0.2500000000
      0.7500000000       0.6250000000       0.3750000000
      0.7500000000       0.6250000000       0.5000000000
      0.7500000000       0.6250000000       0.6250000000
      0.7500000000       0.6250000000       0.7500000000
      0.7500000000       0.6250000000       0.8750000000
      0.7500000000       0.7500000000       0.0000000000
      0.7500000000       0.7500000000       0.1250000000
      0.7500000000       0.7500000000       0.2500000000
      0.7500000000       0.7500000000       0.3750000000
      0.7500000000       0.7500000000       0.5000000000
      0.7500000000       0.7500000000       0.6250000000
      0.7500000000       0.7500000000       0.7500000000
      0.7500000000       0.7500000000       0.8750000000
      0.7500000000       0.8750000000       0.0000000000
      0.7500000000       0.8750000000       0.1250000000
      0.7500000000       0.8750000000       0.2500000000
      0.7500000000       0.8750000000       0.3750000000
      0.7500000000       0.8750000000       0.5000000000
      0.7500000000       0.8750000000       0.6250000000
      0.7500000000       0.8750000000       0.7500000000
      0.7500000000       0.8750000000       0.8750000000
      0.8750000000       0.0000000000       0.0000000000
      0.8750000000       0.0000000000       0.1250000000
      0.8750000000       0.0000000000       0.2500000000
      0.8750000000       0.0000000000       0.3750000000
      0.8750000000       0.0000000000       0.5000000000
      0.8750000000       0.0000000000       0.6250000000
      0.8750000000       0.0000000000       0.7500000000
      0.8750000000       0.0000000000       0.8750000000
      0.8750000000       0.1250000000       0.0000000000
      0.8750000000       0.1250000000       0.1250000000
      0.8750000000       0.1250000000       0.2500000000
      0.8750000000       0.1250000000       0.3750000000
      0.8750000000       0.1250000000       0.5000000000
      0.8750000000       0.1250000000       0.6250000000
      0.8750000000       0.1250000000       0.7500000000
      0.8750000000       0.1250000000       0.8750000000
      0.8750000000       0.2500000000       0.0000000000
      0.8750000000       0.2500000000       0.1250000000
      0.8750000000       0.2500000000       0.2500000000
      0.8750000000       0.2500000000       0.3750000000
      0.8750000000       0.2500000000       0.5000000000
      0.8750000000       0.2500000000       0.6250000000
      0.8750000000       0.2500000000       0.7500000000
      0.8750000000       0.2500000000       0.8750000000
      0.8750000000       0.3750000000       0.0000000000
      0.8750000000       0.3750000000       0.1250000000
      0.8750000000       0.3750000000       0.2500000000
      0.8750000000       0.3750000000       0.3750000000
      0.8750000000       0.3750000000       0.5000000000
      0.8750000000       0.3750000000       0.6250000000
      0.8750000000       0.3750000000       0.7500000000
      0.8750000000       0.3750000000       0.8750000000
      0.8750000000       0.5000000000       0.0000000000
      0.8750000000       0.5000000000       0.1250000000
      0.8750000000       0.5000000000       0.2500000000
      0.8750000000       0.5000000000       0.3750000000
      0.8750000000       0.5000000000       0.5000000000
      0.8750000000       0.5000000000       0.6250000000
      0.8750000000       0.5000000000       0.7500000000
      0.8750000000       0.5000000000       0.8750000000
      0.8750000000       0.6250000000       0.0000000000
      0.8750000000       0.6250000000       0.1250000000
      0.8750000000       0.6250000000       0.2500000000
      0.8750000000       0.6250000000       0.3750000000
      0.8750000000       0.6250000000       0.5000000000
      0.8750000000       0.6250000000       0.6250000000
      0.8750000000       0.6250000000       0.7500000000
      0.8750000000       0.6250000000       0.8750000000
      0.8750000000       0.7500000000       0.0000000000
      0.8750000000       0.7500000000       0.1250000000
      0.8750000000       0.7500000000       0.2500000000
      0.8750000000       0.7500000000       0.3750000000
      0.8750000000       0.7500000000       0.5000000000
      0.8750000000       0.7500000000       0.6250000000
      0.8750000000       0.7500000000       0.7500000000
      0.8750000000       0.7500000000       0.8750000000
      0.8750000000       0.8750000000       0.0000000000
      0.8750000000       0.8750000000       0.1250000000
      0.8750000000       0.8750000000       0.2500000000
      0.8750000000       0.8750000000       0.3750000000
      0.8750000000       0.8750000000       0.5000000000
      0.8750000000       0.8750000000       0.6250000000
      0.8750000000       0.8750000000       0.7500000000
      0.8750000000       0.8750000000       0.8750000000
end kpoints

begin projections
random
c=5.8004619750,3.3488982827,2.3680286852:l=0,mr=1:::r=1:
c=5.8004619750,3.3488982827,2.3680286852:l=1,mr=1:::r=1:
c=5.8004619750,3.3488982827,2.3680286852:l=1,mr=2:::r=1: