POSCAR for generated by WannierTools
1.0
    1.933487    1.116299    3.157372
    3.866975    0.000000    0.000000
   19.334873   33.488983    0.000000
Si    
    20
Direct
    0.750000    0.750000    0.075000       Si
    0.500000    0.500000    0.050000       Si
    0.750000    0.750000    0.175000       Si
    0.500000    0.500000    0.150000       Si
    0.750000    0.750000    0.275000       Si
    0.500000    0.500000    0.250000       Si
    0.750000    0.750000    0.375000       Si
    0.500000    0.500000    0.350000       Si
    0.750000    0.750000    0.475000       Si
    0.500000    0.500000    0.450000       Si
    0.750000    0.750000    0.575000       Si
    0.500000    0.500000    0.550000       Si
    0.750000    0.750000    0.675000       Si
    0.500000    0.500000    0.650000       Si
    0.750000    0.750000    0.775000       Si
    0.500000    0.500000    0.750000       Si
    0.750000    0.750000    0.875000       Si
    0.500000    0.500000    0.850000       Si
    0.750000    0.750000    0.975000       Si
    0.500000    0.500000    0.950000       Si
