&CONTROL
  calculation = 'nscf'
  outdir = './out/'
  prefix = 'aiida'
  pseudo_dir = './pseudo/'
  verbosity = 'high'
/
&SYSTEM
  ecutrho =   2.4000000000d+02
  ecutwfc =   3.0000000000d+01
  ibrav = 0
  nat = 2
  nbnd = 16
  nosym = .true.
  ntyp = 1
/
&ELECTRONS
/
ATOMIC_SPECIES
Si     28.085 Si.pbe-n-rrkjus_psl.1.0.0.UPF
ATOMIC_POSITIONS angstrom
Si           5.8004619750       3.3488982827       2.3680286852
Si           3.8669746500       2.2325988551       1.5786857901
K_POINTS crystal
512
        0.0000000000       0.0000000000       0.0000000000       1.0000000000
        0.0000000000       0.0000000000       0.1250000000       1.0000000000
        0.0000000000       0.0000000000       0.2500000000       1.0000000000
        0.0000000000       0.0000000000       0.3750000000       1.0000000000
        0.0000000000       0.0000000000       0.5000000000       1.0000000000
        0.0000000000       0.0000000000       0.6250000000       1.0000000000
        0.0000000000       0.0000000000       0.7500000000       1.0000000000
        0.0000000000       0.0000000000       0.8750000000       1.0000000000
        0.0000000000       0.1250000000       0.0000000000       1.0000000000
        0.0000000000       0.1250000000       0.1250000000       1.0000000000
        0.0000000000       0.1250000000       0.2500000000       1.0000000000
        0.0000000000       0.1250000000       0.3750000000       1.0000000000
        0.0000000000       0.1250000000       0.5000000000       1.0000000000
        0.0000000000       0.1250000000       0.6250000000       1.0000000000
        0.0000000000       0.1250000000       0.7500000000       1.0000000000
        0.0000000000       0.1250000000       0.8750000000       1.0000000000
        0.0000000000       0.2500000000       0.0000000000       1.0000000000
        0.0000000000       0.2500000000       0.1250000000       1.0000000000
        0.0000000000       0.2500000000       0.2500000000       1.0000000000
        0.0000000000       0.2500000000       0.3750000000       1.0000000000
        0.0000000000       0.2500000000       0.5000000000       1.0000000000
        0.0000000000       0.2500000000       0.6250000000       1.0000000000
        0.0000000000       0.2500000000       0.7500000000       1.0000000000
        0.0000000000       0.2500000000       0.8750000000       1.0000000000
        0.0000000000       0.3750000000       0.0000000000       1.0000000000
        0.0000000000       0.3750000000       0.1250000000       1.0000000000
        0.0000000000       0.3750000000       0.2500000000       1.0000000000
        0.0000000000       0.3750000000       0.3750000000       1.0000000000
        0.0000000000       0.3750000000       0.5000000000       1.0000000000
        0.0000000000       0.3750000000       0.6250000000       1.0000000000
        0.0000000000       0.3750000000       0.7500000000       1.0000000000
        0.0000000000       0.3750000000       0.8750000000       1.0000000000
        0.0000000000       0.5000000000       0.0000000000       1.0000000000
        0.0000000000       0.5000000000       0.1250000000       1.0000000000
        0.0000000000       0.5000000000       0.2500000000       1.0000000000
        0.0000000000       0.5000000000       0.3750000000       1.0000000000
        0.0000000000       0.5000000000       0.5000000000       1.0000000000
        0.0000000000       0.5000000000       0.6250000000       1.0000000000
        0.0000000000       0.5000000000       0.7500000000       1.0000000000
        0.0000000000       0.5000000000       0.8750000000       1.0000000000
        0.0000000000       0.6250000000       0.0000000000       1.0000000000
        0.0000000000       0.6250000000       0.1250000000       1.0000000000
        0.0000000000       0.6250000000       0.2500000000       1.0000000000
        0.0000000000       0.6250000000       0.3750000000       1.0000000000
        0.0000000000       0.6250000000       0.5000000000       1.0000000000
        0.0000000000       0.6250000000       0.6250000000       1.0000000000
        0.0000000000       0.6250000000       0.7500000000       1.0000000000
        0.0000000000       0.6250000000       0.8750000000       1.0000000000
        0.0000000000       0.7500000000       0.0000000000       1.0000000000
        0.0000000000       0.7500000000       0.1250000000       1.0000000000
        0.0000000000       0.7500000000       0.2500000000       1.0000000000
        0.0000000000       0.7500000000       0.3750000000       1.0000000000
        0.0000000000       0.7500000000       0.5000000000       1.0000000000
        0.0000000000       0.7500000000       0.6250000000       1.0000000000
        0.0000000000       0.7500000000       0.7500000000       1.0000000000
        0.0000000000       0.7500000000       0.8750000000       1.0000000000
        0.0000000000       0.8750000000       0.0000000000       1.0000000000
        0.0000000000       0.8750000000       0.1250000000       1.0000000000
        0.0000000000       0.8750000000       0.2500000000       1.0000000000
        0.0000000000       0.8750000000       0.3750000000       1.0000000000
        0.0000000000       0.8750000000       0.5000000000       1.0000000000
        0.0000000000       0.8750000000       0.6250000000       1.0000000000
        0.0000000000       0.8750000000       0.7500000000       1.0000000000
        0.0000000000       0.8750000000       0.8750000000       1.0000000000
        0.1250000000       0.0000000000       0.0000000000       1.0000000000
        0.1250000000       0.0000000000       0.1250000000       1.0000000000
        0.1250000000       0.0000000000       0.2500000000       1.0000000000
        0.1250000000       0.0000000000       0.3750000000       1.0000000000
        0.1250000000       0.0000000000       0.5000000000       1.0000000000
        0.1250000000       0.0000000000       0.6250000000       1.0000000000
        0.1250000000       0.0000000000       0.7500000000       1.0000000000
        0.1250000000       0.0000000000       0.8750000000       1.0000000000
        0.1250000000       0.1250000000       0.0000000000       1.0000000000
        0.1250000000       0.1250000000       0.1250000000       1.0000000000
        0.1250000000       0.1250000000       0.2500000000       1.0000000000
        0.1250000000       0.1250000000       0.3750000000       1.0000000000
        0.1250000000       0.1250000000       0.5000000000       1.0000000000
        0.1250000000       0.1250000000       0.6250000000       1.0000000000
        0.1250000000       0.1250000000       0.7500000000       1.0000000000
        0.1250000000       0.1250000000       0.8750000000       1.0000000000
        0.1250000000       0.2500000000       0.0000000000       1.0000000000
        0.1250000000       0.2500000000       0.1250000000       1.0000000000
        0.1250000000       0.2500000000       0.2500000000       1.0000000000
        0.1250000000       0.2500000000       0.3750000000       1.0000000000
        0.1250000000       0.2500000000       0.5000000000       1.0000000000
        0.1250000000       0.2500000000       0.6250000000       1.0000000000
        0.1250000000       0.2500000000       0.7500000000       1.0000000000
        0.1250000000       0.2500000000       0.8750000000       1.0000000000
        0.1250000000       0.3750000000       0.0000000000       1.0000000000
        0.1250000000       0.3750000000       0.1250000000       1.0000000000
        0.1250000000       0.3750000000       0.2500000000       1.0000000000
        0.1250000000       0.3750000000       0.3750000000       1.0000000000
        0.1250000000       0.3750000000       0.5000000000       1.0000000000
        0.1250000000       0.3750000000       0.6250000000       1.0000000000
        0.1250000000       0.3750000000       0.7500000000       1.0000000000
        0.1250000000       0.3750000000       0.8750000000       1.0000000000
        0.1250000000       0.5000000000       0.0000000000       1.0000000000
        0.1250000000       0.5000000000       0.1250000000       1.0000000000
        0.1250000000       0.5000000000       0.2500000000       1.0000000000
        0.1250000000       0.5000000000       0.3750000000       1.0000000000
        0.1250000000       0.5000000000       0.5000000000       1.0000000000
        0.1250000000       0.5000000000       0.6250000000       1.0000000000
        0.1250000000       0.5000000000       0.7500000000       1.0000000000
        0.1250000000       0.5000000000       0.8750000000       1.0000000000
        0.1250000000       0.6250000000       0.0000000000       1.0000000000
        0.1250000000       0.6250000000       0.1250000000       1.0000000000
        0.1250000000       0.6250000000       0.2500000000       1.0000000000
        0.1250000000       0.6250000000       0.3750000000       1.0000000000
        0.1250000000       0.6250000000       0.5000000000       1.0000000000
        0.1250000000       0.6250000000       0.6250000000       1.0000000000
        0.1250000000       0.6250000000       0.7500000000       1.0000000000
        0.1250000000       0.6250000000       0.8750000000       1.0000000000
        0.1250000000       0.7500000000       0.0000000000       1.0000000000
        0.1250000000       0.7500000000       0.1250000000       1.0000000000
        0.1250000000       0.7500000000       0.2500000000       1.0000000000
        0.1250000000       0.7500000000       0.3750000000       1.0000000000
        0.1250000000       0.7500000000       0.5000000000       1.0000000000
        0.1250000000       0.7500000000       0.6250000000       1.0000000000
        0.1250000000       0.7500000000       0.7500000000       1.0000000000
        0.1250000000       0.7500000000       0.8750000000       1.0000000000
        0.1250000000       0.8750000000       0.0000000000       1.0000000000
        0.1250000000       0.8750000000       0.1250000000       1.0000000000
        0.1250000000       0.8750000000       0.2500000000       1.0000000000
        0.1250000000       0.8750000000       0.3750000000       1.0000000000
        0.1250000000       0.8750000000       0.5000000000       1.0000000000
        0.1250000000       0.8750000000       0.6250000000       1.0000000000
        0.1250000000       0.8750000000       0.7500000000       1.0000000000
        0.1250000000       0.8750000000       0.8750000000       1.0000000000
        0.2500000000       0.0000000000       0.0000000000       1.0000000000
        0.2500000000       0.0000000000       0.1250000000       1.0000000000
        0.2500000000       0.0000000000       0.2500000000       1.0000000000
        0.2500000000       0.0000000000       0.3750000000       1.0000000000
        0.2500000000       0.0000000000       0.5000000000       1.0000000000
        0.2500000000       0.0000000000       0.6250000000       1.0000000000
        0.2500000000       0.0000000000       0.7500000000       1.0000000000
        0.2500000000       0.0000000000       0.8750000000       1.0000000000
        0.2500000000       0.1250000000       0.0000000000       1.0000000000
        0.2500000000       0.1250000000       0.1250000000       1.0000000000
        0.2500000000       0.1250000000       0.2500000000       1.0000000000
        0.2500000000       0.1250000000       0.3750000000       1.0000000000
        0.2500000000       0.1250000000       0.5000000000       1.0000000000
        0.2500000000       0.1250000000       0.6250000000       1.0000000000
        0.2500000000       0.1250000000       0.7500000000       1.0000000000
        0.2500000000       0.1250000000       0.8750000000       1.0000000000
        0.2500000000       0.2500000000       0.0000000000       1.0000000000
        0.2500000000       0.2500000000       0.1250000000       1.0000000000
        0.2500000000       0.2500000000       0.2500000000       1.0000000000
        0.2500000000       0.2500000000       0.3750000000       1.0000000000
        0.2500000000       0.2500000000       0.5000000000       1.0000000000
        0.2500000000       0.2500000000       0.6250000000       1.0000000000
        0.2500000000       0.2500000000       0.7500000000       1.0000000000
        0.2500000000       0.2500000000       0.8750000000       1.0000000000
        0.2500000000       0.3750000000       0.0000000000       1.0000000000
        0.2500000000       0.3750000000       0.1250000000       1.0000000000
        0.2500000000       0.3750000000       0.2500000000       1.0000000000
        0.2500000000       0.3750000000       0.3750000000       1.0000000000
        0.2500000000       0.3750000000       0.5000000000       1.0000000000
        0.2500000000       0.3750000000       0.6250000000       1.0000000000
        0.2500000000       0.3750000000       0.7500000000       1.0000000000
        0.2500000000       0.3750000000       0.8750000000       1.0000000000
        0.2500000000       0.5000000000       0.0000000000       1.0000000000
        0.2500000000       0.5000000000       0.1250000000       1.0000000000
        0.2500000000       0.5000000000       0.2500000000       1.0000000000
        0.2500000000       0.5000000000       0.3750000000       1.0000000000
        0.2500000000       0.5000000000       0.5000000000       1.0000000000
        0.2500000000       0.5000000000       0.6250000000       1.0000000000
        0.2500000000       0.5000000000       0.7500000000       1.0000000000
        0.2500000000       0.5000000000       0.8750000000       1.0000000000
        0.2500000000       0.6250000000       0.0000000000       1.0000000000
        0.2500000000       0.6250000000       0.1250000000       1.0000000000
        0.2500000000       0.6250000000       0.2500000000       1.0000000000
        0.2500000000       0.6250000000       0.3750000000       1.0000000000
        0.2500000000       0.6250000000       0.5000000000       1.0000000000
        0.2500000000       0.6250000000       0.6250000000       1.0000000000
        0.2500000000       0.6250000000       0.7500000000       1.0000000000
        0.2500000000       0.6250000000       0.8750000000       1.0000000000
        0.2500000000       0.7500000000       0.0000000000       1.0000000000
        0.2500000000       0.7500000000       0.1250000000       1.0000000000
        0.2500000000       0.7500000000       0.2500000000       1.0000000000
        0.2500000000       0.7500000000       0.3750000000       1.0000000000
        0.2500000000       0.7500000000       0.5000000000       1.0000000000
        0.2500000000       0.7500000000       0.6250000000       1.0000000000
        0.2500000000       0.7500000000       0.7500000000       1.0000000000
        0.2500000000       0.7500000000       0.8750000000       1.0000000000
        0.2500000000       0.8750000000       0.0000000000       1.0000000000
        0.2500000000       0.8750000000       0.1250000000       1.0000000000
        0.2500000000       0.8750000000       0.2500000000       1.0000000000
        0.2500000000       0.8750000000       0.3750000000       1.0000000000
        0.2500000000       0.8750000000       0.5000000000       1.0000000000
        0.2500000000       0.8750000000       0.6250000000       1.0000000000
        0.2500000000       0.8750000000       0.7500000000       1.0000000000
        0.2500000000       0.8750000000       0.8750000000       1.0000000000
        0.3750000000       0.0000000000       0.0000000000       1.0000000000
        0.3750000000       0.0000000000       0.1250000000       1.0000000000
        0.3750000000       0.0000000000       0.2500000000       1.0000000000
        0.3750000000       0.0000000000       0.3750000000       1.0000000000
        0.3750000000       0.0000000000       0.5000000000       1.0000000000
        0.3750000000       0.0000000000       0.6250000000       1.0000000000
        0.3750000000       0.0000000000       0.7500000000       1.0000000000
        0.3750000000       0.0000000000       0.8750000000       1.0000000000
        0.3750000000       0.1250000000       0.0000000000       1.0000000000
        0.3750000000       0.1250000000       0.1250000000       1.0000000000
        0.3750000000       0.1250000000       0.2500000000       1.0000000000
        0.3750000000       0.1250000000       0.3750000000       1.0000000000
        0.3750000000       0.1250000000       0.5000000000       1.0000000000
        0.3750000000       0.1250000000       0.6250000000       1.0000000000
        0.3750000000       0.1250000000       0.7500000000       1.0000000000
        0.3750000000       0.1250000000       0.8750000000       1.0000000000
        0.3750000000       0.2500000000       0.0000000000       1.0000000000
        0.3750000000       0.2500000000       0.1250000000       1.0000000000
        0.3750000000       0.2500000000       0.2500000000       1.0000000000
        0.3750000000       0.2500000000       0.3750000000       1.0000000000
        0.3750000000       0.2500000000       0.5000000000       1.0000000000
        0.3750000000       0.2500000000       0.6250000000       1.0000000000
        0.3750000000       0.2500000000       0.7500000000       1.0000000000
        0.3750000000       0.2500000000       0.8750000000       1.0000000000
        0.3750000000       0.3750000000       0.0000000000       1.0000000000
        0.3750000000       0.3750000000       0.1250000000       1.0000000000
        0.3750000000       0.3750000000       0.2500000000       1.0000000000
        0.3750000000       0.3750000000       0.3750000000       1.0000000000
        0.3750000000       0.3750000000       0.5000000000       1.0000000000
        0.3750000000       0.3750000000       0.6250000000       1.0000000000
        0.3750000000       0.3750000000       0.7500000000       1.0000000000
        0.3750000000       0.3750000000       0.8750000000       1.0000000000
        0.3750000000       0.5000000000       0.0000000000       1.0000000000
        0.3750000000       0.5000000000       0.1250000000       1.0000000000
        0.3750000000       0.5000000000       0.2500000000       1.0000000000
        0.3750000000       0.5000000000       0.3750000000       1.0000000000
        0.3750000000       0.5000000000       0.5000000000       1.0000000000
        0.3750000000       0.5000000000       0.6250000000       1.0000000000
        0.3750000000       0.5000000000       0.7500000000       1.0000000000
        0.3750000000       0.5000000000       0.8750000000       1.0000000000
        0.3750000000       0.6250000000       0.0000000000       1.0000000000
        0.3750000000       0.6250000000       0.1250000000       1.0000000000
        0.3750000000       0.6250000000       0.2500000000       1.0000000000
        0.3750000000       0.6250000000       0.3750000000       1.0000000000
        0.3750000000       0.6250000000       0.5000000000       1.0000000000
        0.3750000000       0.6250000000       0.6250000000       1.0000000000
        0.3750000000       0.6250000000       0.7500000000       1.0000000000
        0.3750000000       0.6250000000       0.8750000000       1.0000000000
        0.3750000000       0.7500000000       0.0000000000       1.0000000000
        0.3750000000       0.7500000000       0.1250000000       1.0000000000
        0.3750000000       0.7500000000       0.2500000000       1.0000000000
        0.3750000000       0.7500000000       0.3750000000       1.0000000000
        0.3750000000       0.7500000000       0.5000000000       1.0000000000
        0.3750000000       0.7500000000       0.6250000000       1.0000000000
        0.3750000000       0.7500000000       0.7500000000       1.0000000000
        0.3750000000       0.7500000000       0.8750000000       1.0000000000
        0.3750000000       0.8750000000       0.0000000000       1.0000000000
        0.3750000000       0.8750000000       0.1250000000       1.0000000000
        0.3750000000       0.8750000000       0.2500000000       1.0000000000
        0.3750000000       0.8750000000       0.3750000000       1.0000000000
        0.3750000000       0.8750000000       0.5000000000       1.0000000000
        0.3750000000       0.8750000000       0.6250000000       1.0000000000
        0.3750000000       0.8750000000       0.7500000000       1.0000000000
        0.3750000000       0.8750000000       0.8750000000       1.0000000000
        0.5000000000       0.0000000000       0.0000000000       1.0000000000
        0.5000000000       0.0000000000       0.1250000000       1.0000000000
        0.5000000000       0.0000000000       0.2500000000       1.0000000000
        0.5000000000       0.0000000000       0.3750000000       1.0000000000
        0.5000000000       0.0000000000       0.5000000000       1.0000000000
        0.5000000000       0.0000000000       0.6250000000       1.0000000000
        0.5000000000       0.0000000000       0.7500000000       1.0000000000
        0.5000000000       0.0000000000       0.8750000000       1.0000000000
        0.5000000000       0.1250000000       0.0000000000       1.0000000000
        0.5000000000       0.1250000000       0.1250000000       1.0000000000
        0.5000000000       0.1250000000       0.2500000000       1.0000000000
        0.5000000000       0.1250000000       0.3750000000       1.0000000000
        0.5000000000       0.1250000000       0.5000000000       1.0000000000
        0.5000000000       0.1250000000       0.6250000000       1.0000000000
        0.5000000000       0.1250000000       0.7500000000       1.0000000000
        0.5000000000       0.1250000000       0.8750000000       1.0000000000
        0.5000000000       0.2500000000       0.0000000000       1.0000000000
        0.5000000000       0.2500000000       0.1250000000       1.0000000000
        0.5000000000       0.2500000000       0.2500000000       1.0000000000
        0.5000000000       0.2500000000       0.3750000000       1.0000000000
        0.5000000000       0.2500000000       0.5000000000       1.0000000000
        0.5000000000       0.2500000000       0.6250000000       1.0000000000
        0.5000000000       0.2500000000       0.7500000000       1.0000000000
        0.5000000000       0.2500000000       0.8750000000       1.0000000000
        0.5000000000       0.3750000000       0.0000000000       1.0000000000
        0.5000000000       0.3750000000       0.1250000000       1.0000000000
        0.5000000000       0.3750000000       0.2500000000       1.0000000000
        0.5000000000       0.3750000000       0.3750000000       1.0000000000
        0.5000000000       0.3750000000       0.5000000000       1.0000000000
        0.5000000000       0.3750000000       0.6250000000       1.0000000000
        0.5000000000       0.3750000000       0.7500000000       1.0000000000
        0.5000000000       0.3750000000       0.8750000000       1.0000000000
        0.5000000000       0.5000000000       0.0000000000       1.0000000000
        0.5000000000       0.5000000000       0.1250000000       1.0000000000
        0.5000000000       0.5000000000       0.2500000000       1.0000000000
        0.5000000000       0.5000000000       0.3750000000       1.0000000000
        0.5000000000       0.5000000000       0.5000000000       1.0000000000
        0.5000000000       0.5000000000       0.6250000000       1.0000000000
        0.5000000000       0.5000000000       0.7500000000       1.0000000000
        0.5000000000       0.5000000000       0.8750000000       1.0000000000
        0.5000000000       0.6250000000       0.0000000000       1.0000000000
        0.5000000000       0.6250000000       0.1250000000       1.0000000000
        0.5000000000       0.6250000000       0.2500000000       1.0000000000
        0.5000000000       0.6250000000       0.3750000000       1.0000000000
        0.5000000000       0.6250000000       0.5000000000       1.0000000000
        0.5000000000       0.6250000000       0.6250000000       1.0000000000
        0.5000000000       0.6250000000       0.7500000000       1.0000000000
        0.5000000000       0.6250000000       0.8750000000       1.0000000000
        0.5000000000       0.7500000000       0.0000000000       1.0000000000
        0.5000000000       0.7500000000       0.1250000000       1.0000000000
        0.5000000000       0.7500000000       0.2500000000       1.0000000000
        0.5000000000       0.7500000000       0.3750000000       1.0000000000
        0.5000000000       0.7500000000       0.5000000000       1.0000000000
        0.5000000000       0.7500000000       0.6250000000       1.0000000000
        0.5000000000       0.7500000000       0.7500000000       1.0000000000
        0.5000000000       0.7500000000       0.8750000000       1.0000000000
        0.5000000000       0.8750000000       0.0000000000       1.0000000000
        0.5000000000       0.8750000000       0.1250000000       1.0000000000
        0.5000000000       0.8750000000       0.2500000000       1.0000000000
        0.5000000000       0.8750000000       0.3750000000       1.0000000000
        0.5000000000       0.8750000000       0.5000000000       1.0000000000
        0.5000000000       0.8750000000       0.6250000000       1.0000000000
        0.5000000000       0.8750000000       0.7500000000       1.0000000000
        0.5000000000       0.8750000000       0.8750000000       1.0000000000
        0.6250000000       0.0000000000       0.0000000000       1.0000000000
        0.6250000000       0.0000000000       0.1250000000       1.0000000000
        0.6250000000       0.0000000000       0.2500000000       1.0000000000
        0.6250000000       0.0000000000       0.3750000000       1.0000000000
        0.6250000000       0.0000000000       0.5000000000       1.0000000000
        0.6250000000       0.0000000000       0.6250000000       1.0000000000
        0.6250000000       0.0000000000       0.7500000000       1.0000000000
        0.6250000000       0.0000000000       0.8750000000       1.0000000000
        0.6250000000       0.1250000000       0.0000000000       1.0000000000
        0.6250000000       0.1250000000       0.1250000000       1.0000000000
        0.6250000000       0.1250000000       0.2500000000       1.0000000000
        0.6250000000       0.1250000000       0.3750000000       1.0000000000
        0.6250000000       0.1250000000       0.5000000000       1.0000000000
        0.6250000000       0.1250000000       0.6250000000       1.0000000000
        0.6250000000       0.1250000000       0.7500000000       1.0000000000
        0.6250000000       0.1250000000       0.8750000000       1.0000000000
        0.6250000000       0.2500000000       0.0000000000       1.0000000000
        0.6250000000       0.2500000000       0.1250000000       1.0000000000
        0.6250000000       0.2500000000       0.2500000000       1.0000000000
        0.6250000000       0.2500000000       0.3750000000       1.0000000000
        0.6250000000       0.2500000000       0.5000000000       1.0000000000
        0.6250000000       0.2500000000       0.6250000000       1.0000000000
        0.6250000000       0.2500000000       0.7500000000       1.0000000000
        0.6250000000       0.2500000000       0.8750000000       1.0000000000
        0.6250000000       0.3750000000       0.0000000000       1.0000000000
        0.6250000000       0.3750000000       0.1250000000       1.0000000000
        0.6250000000       0.3750000000       0.2500000000       1.0000000000
        0.6250000000       0.3750000000       0.3750000000       1.0000000000
        0.6250000000       0.3750000000       0.5000000000       1.0000000000
        0.6250000000       0.3750000000       0.6250000000       1.0000000000
        0.6250000000       0.3750000000       0.7500000000       1.0000000000
        0.6250000000       0.3750000000       0.8750000000       1.0000000000
        0.6250000000       0.5000000000       0.0000000000       1.0000000000
        0.6250000000       0.5000000000       0.1250000000       1.0000000000
        0.6250000000       0.5000000000       0.2500000000       1.0000000000
        0.6250000000       0.5000000000       0.3750000000       1.0000000000
        0.6250000000       0.5000000000       0.5000000000       1.0000000000
        0.6250000000       0.5000000000       0.6250000000       1.0000000000
        0.6250000000       0.5000000000       0.7500000000       1.0000000000
        0.6250000000       0.5000000000       0.8750000000       1.0000000000
        0.6250000000       0.6250000000       0.0000000000       1.0000000000
        0.6250000000       0.6250000000       0.1250000000       1.0000000000
        0.6250000000       0.6250000000       0.2500000000       1.0000000000
        0.6250000000       0.6250000000       0.3750000000       1.0000000000
        0.6250000000       0.6250000000       0.5000000000       1.0000000000
        0.6250000000       0.6250000000       0.6250000000       1.0000000000
        0.6250000000       0.6250000000       0.7500000000       1.0000000000
        0.6250000000       0.6250000000       0.8750000000       1.0000000000
        0.6250000000       0.7500000000       0.0000000000       1.0000000000
        0.6250000000       0.7500000000       0.1250000000       1.0000000000
        0.6250000000       0.7500000000       0.2500000000       1.0000000000
        0.6250000000       0.7500000000       0.3750000000       1.0000000000
        0.6250000000       0.7500000000       0.5000000000       1.0000000000
        0.6250000000       0.7500000000       0.6250000000       1.0000000000
        0.6250000000       0.7500000000       0.7500000000       1.0000000000
        0.6250000000       0.7500000000       0.8750000000       1.0000000000
        0.6250000000       0.8750000000       0.0000000000       1.0000000000
        0.6250000000       0.8750000000       0.1250000000       1.0000000000