&INPUTPP
  irr_bz = .true.
  outdir = './out/'
  prefix = 'aiida'
  seedname = 'aiida'
  write_amn = .true.
  write_mmn = .true.
/
