Rotated POSCAR by SURFACE card in wt.in by WannierTools
1.0
    1.933487    1.116299    3.157372
    3.866975    0.000000    0.000000
    1.933487    3.348898    0.000000
Si    
     2
Direct
    0.750000    0.750000    0.750000       Si
    0.500000    0.500000    0.500000       Si
