POSCAR for slab defined by SURFACE card and Nslab and Vacuum_thickness_in_Angstrom in wt.in by WannierTools
1.0
    1.933487    1.116299    3.157372
    3.866975    0.000000    0.000000
   25.815944   44.714527    0.000000
Si    
    20
Cartesian
    9.427695    9.631450    2.368029       Si
   11.361182   12.980348    2.368029       Si
   13.294669   16.329246    2.368029       Si
   15.228157   19.678145    2.368029       Si
   17.161644   23.027043    2.368029       Si
   19.095131   26.375941    2.368029       Si
   21.028619   29.724840    2.368029       Si
   22.962106   33.073738    2.368029       Si
   24.895593   36.422636    2.368029       Si
   26.829081   39.771534    2.368029       Si
    7.494207    8.515150    1.578686       Si
    9.427695   11.864049    1.578686       Si
   11.361182   15.212947    1.578686       Si
   13.294669   18.561845    1.578686       Si
   15.228157   21.910744    1.578686       Si
   17.161644   25.259642    1.578686       Si
   19.095131   28.608540    1.578686       Si
   21.028619   31.957438    1.578686       Si
   22.962106   35.306337    1.578686       Si
   24.895593   38.655235    1.578686       Si
